Set parameter TokenServer to value "hpc-licenses.hpcc.usc.edu"
Set parameter TimeLimit to value 3600
Gurobi Optimizer version 9.5.1 build v9.5.1rc2 (linux64)
Thread count: 20 physical cores, 20 logical processors, using up to 20 threads
Optimize a model with 6006 rows, 4529 columns and 23034 nonzeros
Model fingerprint: 0x5084cd58
Variable types: 4506 continuous, 23 integer (23 binary)
Coefficient statistics:
  Matrix range     [1e+00, 1e+00]
  Objective range  [2e-04, 1e+01]
  Bounds range     [1e+00, 1e+00]
  RHS range        [1e+00, 1e+00]
Found heuristic solution: objective 282.8420643
Presolve removed 1520 rows and 1515 columns
Presolve time: 0.07s
Presolved: 4486 rows, 3014 columns, 20481 nonzeros
Variable types: 2994 continuous, 20 integer (20 binary)

Root relaxation: objective 3.061176e+02, 1950 iterations, 0.07 seconds (0.05 work units)

    Nodes    |    Current Node    |     Objective Bounds      |     Work
 Expl Unexpl |  Obj  Depth IntInf | Incumbent    BestBd   Gap | It/Node Time

     0     0  306.11762    0    2  282.84206  306.11762  8.23%     -    0s
     0     0  305.31980    0    2  282.84206  305.31980  7.95%     -    0s
     0     0  305.10022    0    2  282.84206  305.10022  7.87%     -    0s
     0     0  303.02717    0    2  282.84206  303.02717  7.14%     -    0s
     0     0  303.00095    0    2  282.84206  303.00095  7.13%     -    0s
H    0     0                     285.1304399  303.00095  6.27%     -    0s
H    0     0                     290.2427144  300.32814  3.47%     -    0s
     0     0  299.65346    0    2  290.24271  299.65346  3.24%     -    0s
     0     0  299.65346    0    2  290.24271  299.65346  3.24%     -    0s
     0     2  299.65346    0    2  290.24271  299.65346  3.24%     -    0s
*   10     2               5     292.8999856  298.98508  2.08%   268    0s

Cutting planes:
  Gomory: 5
  MIR: 204
  Flow cover: 51
  RLT: 9
  Relax-and-lift: 8

Explored 27 nodes (6123 simplex iterations) in 0.86 seconds (0.63 work units)
Thread count was 20 (of 20 available processors)

Solution count 4: 292.9 290.243 285.13 282.842 

Optimal solution found (tolerance 1.00e-04)
Best objective 2.928999855697e+02, best bound 2.928999855697e+02, gap 0.0000%



#########node  1
V2.8
#########node  2
0.0,1.0
#########node  3
1.0,0.0


Total Solving Time 1.2644898891448975
obj value 292.89998556971636
Policy Regret train (Sum) 15.686538167752374
Best Treatment Found train (%) 47.8
treatment classification acc train (%) 51.2
Policy Regret test (Sum) 224.60131627329972
Best Treatment Found test (%) 53.300000000000004
treatment classification acc test (%) 49.95
Set parameter TokenServer to value "hpc-licenses.hpcc.usc.edu"
Set parameter TimeLimit to value 3600
Gurobi Optimizer version 9.5.1 build v9.5.1rc2 (linux64)
Thread count: 20 physical cores, 20 logical processors, using up to 20 threads
Optimize a model with 6006 rows, 4529 columns and 23034 nonzeros
Model fingerprint: 0x5084cd58
Variable types: 4506 continuous, 23 integer (23 binary)
Coefficient statistics:
  Matrix range     [1e+00, 1e+00]
  Objective range  [2e-04, 1e+01]
  Bounds range     [1e+00, 1e+00]
  RHS range        [1e+00, 1e+00]
Found heuristic solution: objective 282.8420643
Presolve removed 1520 rows and 1515 columns
Presolve time: 0.05s
Presolved: 4486 rows, 3014 columns, 20481 nonzeros
Variable types: 2994 continuous, 20 integer (20 binary)

Root relaxation: objective 3.061176e+02, 1950 iterations, 0.04 seconds (0.05 work units)

    Nodes    |    Current Node    |     Objective Bounds      |     Work
 Expl Unexpl |  Obj  Depth IntInf | Incumbent    BestBd   Gap | It/Node Time

     0     0  306.11762    0    2  282.84206  306.11762  8.23%     -    0s
     0     0  305.31980    0    2  282.84206  305.31980  7.95%     -    0s
     0     0  305.10022    0    2  282.84206  305.10022  7.87%     -    0s
     0     0  303.02717    0    2  282.84206  303.02717  7.14%     -    0s
     0     0  303.00095    0    2  282.84206  303.00095  7.13%     -    0s
H    0     0                     285.1304399  303.00095  6.27%     -    0s
H    0     0                     290.2427144  300.32814  3.47%     -    0s
     0     0  299.65346    0    2  290.24271  299.65346  3.24%     -    0s
     0     0  299.65346    0    2  290.24271  299.65346  3.24%     -    0s
     0     2  299.65346    0    2  290.24271  299.65346  3.24%     -    0s
*   10     2               5     292.8999856  298.98508  2.08%   268    0s

Cutting planes:
  Gomory: 5
  MIR: 204
  Flow cover: 51
  RLT: 9
  Relax-and-lift: 8

Explored 27 nodes (6123 simplex iterations) in 0.86 seconds (0.63 work units)
Thread count was 20 (of 20 available processors)

Solution count 4: 292.9 290.243 285.13 282.842 

Optimal solution found (tolerance 1.00e-04)
Best objective 2.928999855697e+02, best bound 2.928999855697e+02, gap 0.0000%



#########node  1
V2.8
#########node  2
0.0,1.0
#########node  3
1.0,0.0


Total Solving Time 1.258638620376587
obj value 292.89998556971636
Policy Regret train (Sum) 15.686538167752374
Best Treatment Found train (%) 47.8
treatment classification acc train (%) 51.2
Policy Regret test (Sum) 224.60131627329972
Best Treatment Found test (%) 53.300000000000004
treatment classification acc test (%) 49.95
